; benchmark generated from python API
(set-info :status unknown)
(define-funs-rec ( ( T2_05 ((x!1 Int)) Int)
                   ( t2_05 ((x!1 Int)) String)
                   ( rot2_05 ((x!1 String) (x!2 Int)) String)
                   ( ilog2_2_05 ((x!1 Int)) Int)
                   ( T2_03 ((x!1 Int)) Int)
                   ( t2_03 ((x!1 Int)) String)
                   ( invert2_03 ((x!1 String)) String)
                   ( ilog2_2_03 ((x!1 Int)) Int))
                 ( (let ((a!1 (str.substr ((_ t2_05 0)
                                            (+ ((_ ilog2_2_05 0) x!1) 1))
                                          x!1
                                          1)))
                     (ite (= a!1 "0") 0 1))
                   (let ((a!1 (div (str.len ((_ t2_05 0) (- x!1 1))) 2)))
                   (let ((a!2 (str.++ ((_ t2_05 0) (- x!1 1))
                                      ((_ rot2_05 0)
                                        ((_ t2_05 0) (- x!1 1))
                                        a!1))))
                     (ite (= x!1 0) "0" a!2)))
                   (str.++ (str.substr x!1 x!2 (- (str.len x!1) x!2))
                           (str.substr x!1 0 x!2))
                   (ite (<= x!1 1) 0 (+ 1 ((_ ilog2_2_05 0) (div x!1 2))))
                   (let ((a!1 (str.substr ((_ t2_03 0)
                                            (+ ((_ ilog2_2_03 0) x!1) 1))
                                          x!1
                                          1)))
                     (ite (= a!1 "0") 0 1))
                   (let ((a!1 (str.++ ((_ t2_03 0) (- x!1 1))
                                      ((_ invert2_03 0) ((_ t2_03 0) (- x!1 1))))))
                     (ite (= x!1 0) "0" a!1))
                   (let ((a!1 ((_ invert2_03 0)
                                (str.substr x!1 1 (- (str.len x!1) 1)))))
                   (let ((a!2 (ite (= x!1 "0")
                                   "1"
                                   (str.++ ((_ invert2_03 0)
                                             (str.substr x!1 0 1))
                                           a!1))))
                     (ite (= x!1 "") "" (ite (= x!1 "1") "0" a!2))))
                   (ite (<= x!1 1) 0 (+ 1 ((_ ilog2_2_03 0) (div x!1 2))))))
(assert
 (forall ((n Int) )(let ((?x296 ((_ T2_05 0) n)))
(let ((?x251 ((_ T2_03 0) n)))
(let (($x265 (= ?x251 ?x296)))
(let (($x215 (>= n 0)))
(=> $x215 $x265))))))
)
(check-sat)
